NAME : local_0
TYPE : ATSP
DIMENSION : 17
EDGE_WEIGHT_TYPE : EXPLICIT
EDGE_WEIGHT_FORMAT : FULL_MATRIX
EDGE_WEIGHT_SECTION
0 691 10000000 10000000 1029 273 833 536 10000000 964 909 633 623 10000000 410 1132 10000000 
0 0 10000000 10000000 10000000 490 154 239 10000000 10000000 10000000 10000000 10000000 10000000 588 10000000 947 
0 10000000 0 845 419 10000000 10000000 10000000 10000000 282 605 689 745 10000000 10000000 787 973 
0 10000000 845 0 493 10000000 10000000 10000000 739 663 394 796 10000000 867 10000000 10000000 830 
0 10000000 419 493 0 10000000 10000000 10000000 10000000 190 209 482 735 10000000 10000000 10000000 975 
0 490 10000000 10000000 10000000 0 641 326 10000000 10000000 10000000 859 891 10000000 285 10000000 10000000 
0 154 10000000 10000000 10000000 641 0 387 1032 10000000 10000000 10000000 10000000 10000000 739 10000000 911 
0 239 10000000 10000000 10000000 326 387 0 10000000 10000000 10000000 1043 10000000 10000000 351 10000000 1100 
0 10000000 10000000 739 10000000 10000000 1019 10000000 0 10000000 10000000 10000000 10000000 214 10000000 10000000 960 
0 10000000 282 663 190 10000000 10000000 10000000 10000000 0 344 438 605 10000000 10000000 837 956 
0 10000000 605 394 209 10000000 10000000 10000000 10000000 344 0 417 750 10000000 10000000 10000000 1030 
0 10000000 689 796 482 859 10000000 1013 10000000 438 417 0 373 10000000 1025 848 10000000 
0 10000000 745 10000000 735 891 10000000 10000000 10000000 605 750 373 0 10000000 932 525 10000000 
0 10000000 10000000 867 10000000 10000000 10000000 10000000 214 10000000 10000000 10000000 10000000 0 10000000 10000000 974 
0 588 10000000 10000000 10000000 285 739 351 10000000 10000000 10000000 1063 989 10000000 0 10000000 10000000 
0 10000000 787 10000000 10000000 10000000 10000000 10000000 10000000 837 10000000 848 525 10000000 10000000 0 10000000 
0 10000000 10000000 10000000 10000000 10000000 10000000 10000000 10000000 10000000 10000000 10000000 10000000 10000000 10000000 10000000 0 
EOF